
Gurobi 6.5.2 (win64) logging started 07/22/16 21:29:54


Gurobi 6.5.2 (win64) logging started 07/22/16 21:29:54

Optimize a model with 1511 rows, 258 columns and 3528 nonzeros
Coefficient statistics:
  Matrix range    [1e+00, 4e+02]
  Objective range [2e+00, 4e+02]
  Bounds range    [1e+00, 1e+00]
  RHS range       [1e+00, 2e+03]
Presolve removed 1378 rows and 29 columns
Presolve time: 0.00s
Presolved: 133 rows, 229 columns, 1094 nonzeros
Variable types: 0 continuous, 229 integer (229 binary)

Root relaxation: objective 1.914000e+03, 81 iterations, 0.00 seconds

    Nodes    |    Current Node    |     Objective Bounds      |     Work
 Expl Unexpl |  Obj  Depth IntInf | Incumbent    BestBd   Gap | It/Node Time

*    0     0               0    1914.0000000 1914.00000  0.00%     -    0s

Explored 0 nodes (81 simplex iterations) in 0.02 seconds
Thread count was 8 (of 8 available processors)

Optimal solution found (tolerance 1.00e-04)
Best objective 1.914000000000e+03, best bound 1.914000000000e+03, gap 0.0%

Wrote requested result file 'H1\instance15\\Results15SG_Sol4.lp'

